results_rootrelaxation/bin012_090_039.srr.sol
solution status: optimal solution found
objective value:                                 30.6
_var720_                                          0.2 	(obj:4)
_var730_                                          0.2 	(obj:2)
_var732_                                          0.6 	(obj:4)
_var736_                                          0.4 	(obj:2)
_var746_                                          0.4 	(obj:2)
_var747_                                          0.4 	(obj:2)
_var748_                                          0.2 	(obj:3)
_var749_                                          0.4 	(obj:1)
_var767_                                          0.2 	(obj:3)
_var772_                                          0.6 	(obj:2)
_var776_                                          0.2 	(obj:4)
_var778_                                          0.6 	(obj:3)
_var781_                                          0.4 	(obj:3)
_var785_                                          0.4 	(obj:3)
_var788_                                          0.4 	(obj:3)
_var804_                                          0.2 	(obj:2)
_var806_                                          0.6 	(obj:4)
_var807_                                          0.4 	(obj:2)
_var808_                                          0.2 	(obj:3)
_var810_                                          0.2 	(obj:3)
_var811_                                          0.2 	(obj:3)
_var820_                                          0.2 	(obj:4)
_var828_                                          0.4 	(obj:4)
_var837_                                          0.4 	(obj:2)
_var841_                                          0.2 	(obj:4)
_var854_                                          0.2 	(obj:3)
_var856_                                          0.2 	(obj:2)
_var874_                                          0.2 	(obj:3)
_var894_                                          0.2 	(obj:3)
_var899_                                          0.4 	(obj:2)
_var906_                                          0.2 	(obj:2)
_var924_                                          0.2 	(obj:3)
_var932_                                          0.2 	(obj:2)
_var933_                                          0.2 	(obj:3)
_var936_                                          0.2 	(obj:3)
_var941_                                          0.2 	(obj:3)
