results_rootrelaxation/bin012_090_039.srr.log
SCIP version 8.0.3.5 [precision: 8 byte] [memory: block] [mode: optimized] [LP solver: Soplex 6.0.1.3] [GitHash: 438792519e]
Copyright (c) 2002-2023 Zuse Institute Berlin (ZIB)

External libraries: 
  Readline 8.1         GNU library for command line editing (gnu.org/s/readline)
  Soplex 6.0.1.3       Linear Programming Solver developed at Zuse Institute Berlin (soplex.zib.de) [GitHash: 713be0fe]
  CppAD 20180000.0     Algorithmic Differentiation of C++ algorithms developed by B. Bell (github.com/coin-or/CppAD)
  ZLIB 1.2.11          General purpose compression library by J. Gailly and M. Adler (zlib.net)
  bliss 0.77           Computing Graph Automorphism Groups by T. Junttila and P. Kaski (www.tcs.hut.fi/Software/bliss/)

user parameter file <scip.set> not found - using default parameters

srr/relaxation = TRUE

read problem <instances/bin012_090_039.srr>
============

Original problem: 
original problem has 0 variables (0 bin, 0 int, 0 impl, 0 cont) and 77 constraints

presolving:
presolving (1 rounds: 1 fast, 1 medium, 1 exhaustive):
 0 deleted vars, 0 deleted constraints, 0 added constraints, 0 tightened bounds, 0 added holes, 0 changed sides, 0 changed coefficients
 0 implications, 0 cliques
presolved problem has 0 variables (0 bin, 0 int, 0 impl, 0 cont) and 77 constraints
     77 constraints of type <linear>
Presolving Time: 0.00

 time | node  | left  |LP iter|LP it/n|mem/heur|mdpt |vars |cons |rows |cuts |sepa|confs|strbr|  dualbound   | primalbound  |  gap   | compl. 
  0.0s|     1 |     0 |     1 |     - |   710k |   0 |   1 |  77 |  77 |   0 |  0 |   0 |   0 |      --      |      --      |    Inf | unknown
r 0.1s|     1 |     0 |   906 |     - |simplero|   0 | 672 |  77 |  77 |   0 |  0 |   0 |   0 |      --      | 4.532902e+01 |    Inf | unknown
r 0.1s|     1 |     0 |   930 |     - |simplero|   0 | 683 |  77 |  77 |   0 |  0 |   0 |   0 |      --      | 4.422047e+01 |    Inf | unknown
r 0.1s|     1 |     0 |   968 |     - |simplero|   0 | 694 |  77 |  77 |   0 |  0 |   0 |   0 |      --      | 4.353471e+01 |    Inf | unknown
r 0.1s|     1 |     0 |  1011 |     - |simplero|   0 | 705 |  77 |  77 |   0 |  0 |   0 |   0 |      --      | 4.274815e+01 |    Inf | unknown
r 0.1s|     1 |     0 |  1046 |     - |simplero|   0 | 716 |  77 |  77 |   0 |  0 |   0 |   0 |      --      | 4.205983e+01 |    Inf | unknown
r 0.1s|     1 |     0 |  1108 |     - |simplero|   0 | 727 |  77 |  77 |   0 |  0 |   0 |   0 |      --      | 4.025379e+01 |    Inf | unknown
r 0.1s|     1 |     0 |  1197 |     - |simplero|   0 | 738 |  77 |  77 |   0 |  0 |   0 |   0 |      --      | 3.880365e+01 |    Inf | unknown
r 0.1s|     1 |     0 |  1271 |     - |simplero|   0 | 749 |  77 |  77 |   0 |  0 |   0 |   0 |      --      | 3.759087e+01 |    Inf | unknown
r 0.1s|     1 |     0 |  1306 |     - |simplero|   0 | 760 |  77 |  77 |   0 |  0 |   0 |   0 |      --      | 3.687605e+01 |    Inf | unknown
r 0.1s|     1 |     0 |  1325 |     - |simplero|   0 | 760 |  77 |  77 |   0 |  0 |   0 |   0 |      --      | 3.672284e+01 |    Inf | unknown
r 0.1s|     1 |     0 |  1334 |     - |simplero|   0 | 760 |  77 |  77 |   0 |  0 |   0 |   0 |      --      | 3.671628e+01 |    Inf | unknown
r 0.1s|     1 |     0 |  1337 |     - |simplero|   0 | 760 |  77 |  77 |   0 |  0 |   0 |   0 |      --      | 3.671583e+01 |    Inf | unknown
r 0.1s|     1 |     0 |  1375 |     - |simplero|   0 | 771 |  77 |  77 |   0 |  0 |   0 |   0 |      --      | 3.579894e+01 |    Inf | unknown
r 0.1s|     1 |     0 |  1380 |     - |simplero|   0 | 771 |  77 |  77 |   0 |  0 |   0 |   0 |      --      | 3.578644e+01 |    Inf | unknown
 time | node  | left  |LP iter|LP it/n|mem/heur|mdpt |vars |cons |rows |cuts |sepa|confs|strbr|  dualbound   | primalbound  |  gap   | compl. 
r 0.1s|     1 |     0 |  1424 |     - |simplero|   0 | 782 |  77 |  77 |   0 |  0 |   0 |   0 |      --      | 3.487456e+01 |    Inf | unknown
r 0.1s|     1 |     0 |  1457 |     - |simplero|   0 | 782 |  77 |  77 |   0 |  0 |   0 |   0 |      --      | 3.464845e+01 |    Inf | unknown
r 0.1s|     1 |     0 |  1459 |     - |simplero|   0 | 782 |  77 |  77 |   0 |  0 |   0 |   0 |      --      | 3.464811e+01 |    Inf | unknown
r 0.1s|     1 |     0 |  1512 |     - |simplero|   0 | 793 |  77 |  77 |   0 |  0 |   0 |   0 |      --      | 3.345684e+01 |    Inf | unknown
r 0.1s|     1 |     0 |  1531 |     - |simplero|   0 | 793 |  77 |  77 |   0 |  0 |   0 |   0 |      --      | 3.335929e+01 |    Inf | unknown
r 0.1s|     1 |     0 |  1575 |     - |simplero|   0 | 804 |  77 |  77 |   0 |  0 |   0 |   0 |      --      | 3.280186e+01 |    Inf | unknown
r 0.1s|     1 |     0 |  1622 |     - |simplero|   0 | 815 |  77 |  77 |   0 |  0 |   0 |   0 |      --      | 3.209524e+01 |    Inf | unknown
r 0.1s|     1 |     0 |  1638 |     - |simplero|   0 | 815 |  77 |  77 |   0 |  0 |   0 |   0 |      --      | 3.207779e+01 |    Inf | unknown
r 0.1s|     1 |     0 |  1641 |     - |simplero|   0 | 815 |  77 |  77 |   0 |  0 |   0 |   0 |      --      | 3.206816e+01 |    Inf | unknown
r 0.1s|     1 |     0 |  1670 |     - |simplero|   0 | 826 |  77 |  77 |   0 |  0 |   0 |   0 |      --      | 3.181453e+01 |    Inf | unknown
r 0.1s|     1 |     0 |  1685 |     - |simplero|   0 | 826 |  77 |  77 |   0 |  0 |   0 |   0 |      --      | 3.179143e+01 |    Inf | unknown
r 0.1s|     1 |     0 |  1719 |     - |simplero|   0 | 837 |  77 |  77 |   0 |  0 |   0 |   0 |      --      | 3.156996e+01 |    Inf | unknown
r 0.1s|     1 |     0 |  1739 |     - |simplero|   0 | 837 |  77 |  77 |   0 |  0 |   0 |   0 |      --      | 3.150714e+01 |    Inf | unknown
r 0.1s|     1 |     0 |  1783 |     - |simplero|   0 | 848 |  77 |  77 |   0 |  0 |   0 |   0 |      --      | 3.138053e+01 |    Inf | unknown
r 0.1s|     1 |     0 |  1805 |     - |simplero|   0 | 848 |  77 |  77 |   0 |  0 |   0 |   0 |      --      | 3.135567e+01 |    Inf | unknown
 time | node  | left  |LP iter|LP it/n|mem/heur|mdpt |vars |cons |rows |cuts |sepa|confs|strbr|  dualbound   | primalbound  |  gap   | compl. 
r 0.1s|     1 |     0 |  1809 |     - |simplero|   0 | 848 |  77 |  77 |   0 |  0 |   0 |   0 |      --      | 3.135468e+01 |    Inf | unknown
r 0.1s|     1 |     0 |  1850 |     - |simplero|   0 | 859 |  77 |  77 |   0 |  0 |   0 |   0 |      --      | 3.119685e+01 |    Inf | unknown
r 0.1s|     1 |     0 |  1860 |     - |simplero|   0 | 859 |  77 |  77 |   0 |  0 |   0 |   0 |      --      | 3.116000e+01 |    Inf | unknown
  0.1s|     1 |     0 |  1874 |     - |  4186k |   0 | 859 |  77 |  77 |   0 |  0 |   0 |   0 |      --      | 3.116000e+01 |    Inf | unknown
r 0.1s|     1 |     0 |  1874 |     - |simplero|   0 | 859 |  77 |  77 |   0 |  0 |   0 |   0 |      --      | 3.115950e+01 |    Inf | unknown
r 0.1s|     1 |     0 |  1879 |     - |simplero|   0 | 859 |  77 |  77 |   0 |  0 |   0 |   0 |      --      | 3.115539e+01 |    Inf | unknown
r 0.1s|     1 |     0 |  1904 |     - |simplero|   0 | 870 |  77 |  77 |   0 |  0 |   0 |   0 |      --      | 3.100562e+01 |    Inf | unknown
r 0.1s|     1 |     0 |  1907 |     - |simplero|   0 | 870 |  77 |  77 |   0 |  0 |   0 |   0 |      --      | 3.100450e+01 |    Inf | unknown
r 0.1s|     1 |     0 |  1938 |     - |simplero|   0 | 881 |  77 |  77 |   0 |  0 |   0 |   0 |      --      | 3.090842e+01 |    Inf | unknown
r 0.1s|     1 |     0 |  1955 |     - |simplero|   0 | 891 |  77 |  77 |   0 |  0 |   0 |   0 |      --      | 3.085185e+01 |    Inf | unknown
r 0.1s|     1 |     0 |  1967 |     - |simplero|   0 | 891 |  77 |  77 |   0 |  0 |   0 |   0 |      --      | 3.080436e+01 |    Inf | unknown
r 0.1s|     1 |     0 |  1970 |     - |simplero|   0 | 891 |  77 |  77 |   0 |  0 |   0 |   0 |      --      | 3.080392e+01 |    Inf | unknown
r 0.1s|     1 |     0 |  1989 |     - |simplero|   0 | 899 |  77 |  77 |   0 |  0 |   0 |   0 |      --      | 3.073333e+01 |    Inf | unknown
r 0.1s|     1 |     0 |  2027 |     - |simplero|   0 | 909 |  77 |  77 |   0 |  0 |   0 |   0 |      --      | 3.072000e+01 |    Inf | unknown
r 0.1s|     1 |     0 |  2065 |     - |simplero|   0 | 918 |  77 |  77 |   0 |  0 |   0 |   0 |      --      | 3.069591e+01 |    Inf | unknown
 time | node  | left  |LP iter|LP it/n|mem/heur|mdpt |vars |cons |rows |cuts |sepa|confs|strbr|  dualbound   | primalbound  |  gap   | compl. 
r 0.1s|     1 |     0 |  2087 |     - |simplero|   0 | 927 |  77 |  77 |   0 |  0 |   0 |   0 |      --      | 3.068966e+01 |    Inf | unknown
r 0.1s|     1 |     0 |  2093 |     - |simplero|   0 | 927 |  77 |  77 |   0 |  0 |   0 |   0 |      --      | 3.068874e+01 |    Inf | unknown
r 0.1s|     1 |     0 |  2109 |     - |simplero|   0 | 934 |  77 |  77 |   0 |  0 |   0 |   0 |      --      | 3.064000e+01 |    Inf | unknown
r 0.1s|     1 |     0 |  2121 |     - |simplero|   0 | 942 |  77 |  77 |   0 |  0 |   0 |   0 |      --      | 3.060000e+01 |    Inf | unknown
  0.1s|     1 |     0 |  2129 |     - |  4479k |   0 | 947 |  77 |  77 |   0 |  0 |   0 |   0 | 3.060000e+01 | 3.060000e+01 |   0.00%| unknown
  0.1s|     1 |     0 |  2129 |     - |  4479k |   0 | 947 |  77 |  77 |   0 |  0 |   0 |   0 | 3.060000e+01 | 3.060000e+01 |   0.00%| unknown

SCIP Status        : problem is solved [optimal solution found]
Solving Time (sec) : 0.11
Solving Nodes      : 1
Primal Bound       : +3.06000000000000e+01 (47 solutions)
Dual Bound         : +3.06000000000000e+01
Gap                : 0.00 %

written transformed problem to file <results_rootrelaxation/bin012_090_039.srr.lp>
written transformed problem to file <results_rootrelaxation/bin012_090_039.srr.cip>

written solution information to file <results_rootrelaxation/bin012_090_039.srr.sol>



